11555 8838 12002
10039 10495 10408
10380 10508 10088
12792 9010 11124
12250 9293 11382
11915 8599 11879
12331 9030 11552
13098 8834 10402
10416 10301 10785
12540 9400 11111
11574 10149 9786
11061 10047 10965
13307 8264 9808
10121 9639 11632
11089 8994 12007
12567 9489 10719
10585 10001 11288
10066 10584 10016
11399 10050 10541
12816 9215 10194
11061 9921 11399
12358 9643 10464
9159 10660 8860
